<number of tasks>
20

<cycle time>
1000

<order strength>
0,805


<task times>
1 539
2 276
3 468
4 534
5 231
6 534
7 655
8 502
9 410
10 624
11 776
12 384
13 428
14 497
15 342
16 551
17 652
18 261
19 550
20 505

<precedence relations>
1,5
2,10
3,5
4,6
5,6
5,7
6,8
6,9
7,8
7,9
8,10
9,10
10,11
10,12
11,14
11,15
12,13
12,14
13,15
13,17
14,16
15,18
15,20
16,19

<end>
